;; Mutation-Based Equivalence Benchmark
;; Source:     AutomatArk / instance08344.smt2
;; Mutations:  union_to_inter, range_expand_hi
;; Status:     sat
;;
;; Original regex vs mutated regex
;; Equivalence check: unsat ⟺ L(R1) = L(R2)

(set-info :smt-lib-version 2.6)
(set-info :category "mutation")
(set-info :status sat)
(set-logic QF_S)

(declare-const x String)

;; R1: original
;; R2: mutated (union_to_inter, range_expand_hi)
(assert
  (str.in_re x
    (re.union (re.inter (re.++ (re.union (re.range "A" "Z") (re.range "a" "z") (re.range "0" "9")) (re.* (re.++ (re.opt (re.union (str.to_re "_") (str.to_re ".") (str.to_re "-"))) (re.+ (re.union (re.range "a" "z") (re.range "A" "Z") (re.range "0" "9"))))) (str.to_re "@") (re.+ (re.union (re.range "A" "Z") (re.range "a" "z") (re.range "0" "9"))) (re.* (re.++ (re.opt (re.union (str.to_re ".") (str.to_re "-"))) (re.+ (re.union (re.range "a" "z") (re.range "A" "Z") (re.range "0" "9"))))) (str.to_re ".\u{a}") ((_ re.loop 2 2) (re.union (re.range "A" "Z") (re.range "a" "z"))) (re.* (re.union (re.range "A" "Z") (re.range "a" "z")))) (re.comp (re.++ (re.union (re.range "A" "Z") (re.range "a" "z") (re.range "0" "9")) (re.* (re.++ (re.opt (re.union (str.to_re "_") (str.to_re ".") (str.to_re "-"))) (re.+ (re.union (re.range "a" "z") (re.range "A" "Z") (re.range "0" "9"))))) (str.to_re "@") (re.+ (re.union (re.range "A" "[") (re.range "a" "z") (re.range "0" "9"))) (re.* (re.++ (re.opt (re.union (str.to_re ".") (str.to_re "-"))) (re.+ (re.union (re.range "a" "z") (re.range "A" "Z") (re.range "0" "9"))))) (str.to_re ".\u{a}") ((_ re.loop 2 2) (re.inter(re.range "A" "Z") (re.range "a" "z"))) (re.* (re.union (re.range "A" "Z") (re.range "a" "z")))))) (re.inter (re.comp (re.++ (re.union (re.range "A" "Z") (re.range "a" "z") (re.range "0" "9")) (re.* (re.++ (re.opt (re.union (str.to_re "_") (str.to_re ".") (str.to_re "-"))) (re.+ (re.union (re.range "a" "z") (re.range "A" "Z") (re.range "0" "9"))))) (str.to_re "@") (re.+ (re.union (re.range "A" "Z") (re.range "a" "z") (re.range "0" "9"))) (re.* (re.++ (re.opt (re.union (str.to_re ".") (str.to_re "-"))) (re.+ (re.union (re.range "a" "z") (re.range "A" "Z") (re.range "0" "9"))))) (str.to_re ".\u{a}") ((_ re.loop 2 2) (re.union (re.range "A" "Z") (re.range "a" "z"))) (re.* (re.union (re.range "A" "Z") (re.range "a" "z"))))) (re.++ (re.union (re.range "A" "Z") (re.range "a" "z") (re.range "0" "9")) (re.* (re.++ (re.opt (re.union (str.to_re "_") (str.to_re ".") (str.to_re "-"))) (re.+ (re.union (re.range "a" "z") (re.range "A" "Z") (re.range "0" "9"))))) (str.to_re "@") (re.+ (re.union (re.range "A" "[") (re.range "a" "z") (re.range "0" "9"))) (re.* (re.++ (re.opt (re.union (str.to_re ".") (str.to_re "-"))) (re.+ (re.union (re.range "a" "z") (re.range "A" "Z") (re.range "0" "9"))))) (str.to_re ".\u{a}") ((_ re.loop 2 2) (re.inter(re.range "A" "Z") (re.range "a" "z"))) (re.* (re.union (re.range "A" "Z") (re.range "a" "z"))))))))

(check-sat)
(exit)
